p cnf 45 32
c p distribution  0.875 0.125
c p distribution  0.875 0.125
c p distribution  0.875 0.125
c p distribution  0.875 0.125
c p distribution  0.875 0.125
c p distribution  0.875 0.125
c p distribution  0.875 0.125
c p distribution  0.875 0.125
c p distribution  0.875 0.125
c p distribution  0.875 0.125
c p distribution  0.875 0.125
c p distribution  0.875 0.125
c p distribution  0.875 0.125
c p distribution  0.875 0.125
c p distribution  0.875 0.125
39 0
-40 0
45 -32 -1 0
32 -45 -1 0
41 -39 -3 0
39 -41 -3 0
43 -42 -5 0
42 -43 -5 0
31 -35 -7 0
35 -31 -7 0
37 -38 -9 0
38 -37 -9 0
40 -37 -11 0
37 -40 -11 0
34 -43 -13 0
43 -34 -13 0
33 -38 -15 0
38 -33 -15 0
37 -32 -17 0
32 -37 -17 0
35 -31 -19 0
31 -35 -19 0
40 -38 -21 0
38 -40 -21 0
36 -38 -23 0
38 -36 -23 0
37 -32 -25 0
32 -37 -25 0
45 -44 -27 0
44 -45 -27 0
32 -34 -29 0
34 -32 -29 0

